
n_res = 6;
rcap = [30, 34, 34, 29, 1434, 1491];
rtype = [1, 1, 1, 1, 2, 2];
n_tasks = 100;
modes =  [{1, 2, 3, 4, 5, 6}, {7, 8, 9, 10, 11, 12}, {13, 14, 15, 16, 17, 18}, {19, 20, 21, 22, 23, 24}, {25, 26, 27, 28, 29, 30}, {31, 32, 33, 34, 35, 36}, {37, 38, 39, 40, 41, 42}, {43, 44, 45, 46, 47, 48}, {49, 50, 51, 52, 53, 54}, {55, 56, 57, 58, 59, 60}, {61, 62, 63, 64, 65, 66}, {67, 68, 69, 70, 71, 72}, {73, 74, 75, 76, 77, 78}, {79, 80, 81, 82, 83, 84}, {85, 86, 87, 88, 89, 90}, {91, 92, 93, 94, 95, 96}, {97, 98, 99, 100, 101, 102}, {103, 104, 105, 106, 107, 108}, {109, 110, 111, 112, 113, 114}, {115, 116, 117, 118, 119, 120}, {121, 122, 123, 124, 125, 126}, {127, 128, 129, 130, 131, 132}, {133, 134, 135, 136, 137, 138}, {139, 140, 141, 142, 143, 144}, {145, 146, 147, 148, 149, 150}, {151, 152, 153, 154, 155, 156}, {157, 158, 159, 160, 161, 162}, {163, 164, 165, 166, 167, 168}, {169, 170, 171, 172, 173, 174}, {175, 176, 177, 178, 179, 180}, {181, 182, 183, 184, 185, 186}, {187, 188, 189, 190, 191, 192}, {193, 194, 195, 196, 197, 198}, {199, 200, 201, 202, 203, 204}, {205, 206, 207, 208, 209, 210}, {211, 212, 213, 214, 215, 216}, {217, 218, 219, 220, 221, 222}, {223, 224, 225, 226, 227, 228}, {229, 230, 231, 232, 233, 234}, {235, 236, 237, 238, 239, 240}, {241, 242, 243, 244, 245, 246}, {247, 248, 249, 250, 251, 252}, {253, 254, 255, 256, 257, 258}, {259, 260, 261, 262, 263, 264}, {265, 266, 267, 268, 269, 270}, {271, 272, 273, 274, 275, 276}, {277, 278, 279, 280, 281, 282}, {283, 284, 285, 286, 287, 288}, {289, 290, 291, 292, 293, 294}, {295, 296, 297, 298, 299, 300}, {301, 302, 303, 304, 305, 306}, {307, 308, 309, 310, 311, 312}, {313, 314, 315, 316, 317, 318}, {319, 320, 321, 322, 323, 324}, {325, 326, 327, 328, 329, 330}, {331, 332, 333, 334, 335, 336}, {337, 338, 339, 340, 341, 342}, {343, 344, 345, 346, 347, 348}, {349, 350, 351, 352, 353, 354}, {355, 356, 357, 358, 359, 360}, {361, 362, 363, 364, 365, 366}, {367, 368, 369, 370, 371, 372}, {373, 374, 375, 376, 377, 378}, {379, 380, 381, 382, 383, 384}, {385, 386, 387, 388, 389, 390}, {391, 392, 393, 394, 395, 396}, {397, 398, 399, 400, 401, 402}, {403, 404, 405, 406, 407, 408}, {409, 410, 411, 412, 413, 414}, {415, 416, 417, 418, 419, 420}, {421, 422, 423, 424, 425, 426}, {427, 428, 429, 430, 431, 432}, {433, 434, 435, 436, 437, 438}, {439, 440, 441, 442, 443, 444}, {445, 446, 447, 448, 449, 450}, {451, 452, 453, 454, 455, 456}, {457, 458, 459, 460, 461, 462}, {463, 464, 465, 466, 467, 468}, {469, 470, 471, 472, 473, 474}, {475, 476, 477, 478, 479, 480}, {481, 482, 483, 484, 485, 486}, {487, 488, 489, 490, 491, 492}, {493, 494, 495, 496, 497, 498}, {499, 500, 501, 502, 503, 504}, {505, 506, 507, 508, 509, 510}, {511, 512, 513, 514, 515, 516}, {517, 518, 519, 520, 521, 522}, {523, 524, 525, 526, 527, 528}, {529, 530, 531, 532, 533, 534}, {535, 536, 537, 538, 539, 540}, {541, 542, 543, 544, 545, 546}, {547, 548, 549, 550, 551, 552}, {553, 554, 555, 556, 557, 558}, {559, 560, 561, 562, 563, 564}, {565, 566, 567, 568, 569, 570}, {571, 572, 573, 574, 575, 576}, {577, 578, 579, 580, 581, 582}, {583, 584, 585, 586, 587, 588}, {589, 590, 591, 592, 593, 594}, {595, 596, 597, 598, 599, 600}];
succ =  [{50, 49, 47, 45, 43, 37, 34, 32, 31, 30, 29, 28, 21, 15}, {58, 49, 47, 43, 40, 37, 31, 30, 28, 26, 20, 16, 15}, {49, 47, 46, 39, 32, 30, 29, 27, 20, 19, 15}, {50, 49, 47, 37, 35, 33, 32, 31, 30, 29, 26, 16}, {57, 50, 49, 47, 46, 45, 44, 43, 42, 39, 38, 37, 36, 35, 32, 31, 29, 25}, {62, 58, 57, 51, 50, 49, 47, 45, 44, 43, 40, 39, 37, 33, 32, 31, 27}, {58, 50, 49, 47, 44, 30, 26, 22, 15}, {47, 46, 41, 39, 36, 33, 32, 19, 14}, {49, 41, 40, 39, 36, 31, 29, 26, 19}, {59, 54, 53, 50, 49, 46, 45, 42, 41, 40, 38, 35, 28, 25}, {72, 62, 60, 58, 51, 49, 45, 41, 38, 37, 35, 33, 31}, {77, 62, 60, 59, 52, 49, 45, 44, 42, 41, 40, 39, 36, 33}, {75, 72, 67, 66, 62, 61, 60, 59, 58, 57, 55, 54, 53, 52, 51, 49, 48, 45, 44, 38}, {69, 67, 62, 60, 58, 54, 53, 51, 50, 49, 38, 35, 31}, {72, 69, 63, 60, 59, 57, 51, 42, 41, 38, 35, 33}, {69, 57, 53, 52, 51, 48, 45, 41, 39, 36, 34}, {72, 54, 51, 49, 46, 45, 44, 38, 37, 36, 35}, {75, 74, 72, 69, 63, 62, 58, 56, 54, 52, 51, 48, 44, 39, 38, 36}, {75, 74, 73, 67, 66, 63, 62, 56, 54, 51, 50, 44, 43, 35}, {77, 75, 69, 67, 66, 59, 57, 56, 55, 52, 50, 48, 45, 44, 38}, {73, 72, 62, 59, 56, 54, 51, 46, 39, 35}, {75, 72, 60, 45, 41, 35, 31}, {72, 69, 66, 63, 60, 59, 56, 51, 48, 41, 39, 38}, {77, 75, 72, 69, 68, 63, 60, 59, 58, 53, 52, 42, 41}, {86, 75, 74, 72, 69, 68, 66, 65, 63, 62, 60, 56, 55, 52, 51, 48}, {75, 72, 66, 63, 60, 59, 56, 55, 54, 53, 48, 38}, {77, 75, 74, 72, 69, 66, 63, 60, 48, 41, 38}, {75, 74, 73, 63, 56, 48, 44, 39, 36}, {86, 75, 74, 68, 65, 64, 63, 62, 58, 55, 53, 51}, {75, 74, 66, 63, 62, 61, 60, 55, 48}, {86, 85, 73, 66, 64, 63, 61, 59, 56, 55}, {83, 77, 75, 71, 70, 68, 65, 64, 63, 54, 52}, {75, 73, 71, 70, 66, 65, 61, 56, 54}, {75, 66, 63, 59, 56, 54, 44}, {86, 85, 84, 65, 61, 55, 52, 48}, {100, 86, 85, 76, 67, 66, 65, 64, 61, 55}, {86, 79, 77, 66, 56, 53, 48}, {100, 99, 86, 84, 83, 82, 78, 76, 73, 71, 70, 68, 65}, {100, 86, 83, 82, 79, 76, 71, 65, 64, 61}, {100, 86, 85, 84, 79, 76, 72, 71, 69, 61}, {100, 85, 84, 76, 73, 70, 67, 65, 64}, {86, 84, 83, 73, 65, 64, 56}, {84, 79, 72, 71, 48}, {100, 99, 96, 86, 85, 84, 82, 70, 64}, {99, 94, 85, 82, 78, 71, 70, 65, 63}, {100, 99, 96, 95, 94, 93, 86, 85, 81, 78, 75, 66}, {100, 96, 94, 78, 55}, {100, 99, 98, 93, 90, 89, 83, 82, 76, 64}, {99, 97, 94, 83, 79, 78, 74, 73, 63}, {100, 99, 98, 93, 86, 79, 68, 64}, {100, 99, 98, 97, 96, 95, 94, 90, 89, 84, 81, 80, 78, 77}, {100, 99, 98, 97, 96, 94, 93, 91, 89, 82, 81, 79, 78}, {97, 96, 91, 90, 85, 84, 83, 82, 80, 78, 73}, {98, 95, 91, 86, 85, 84, 79, 78, 76}, {99, 95, 82, 80, 71, 70}, {100, 99, 98, 97, 95, 93, 91, 89, 88, 82, 81, 80, 76}, {96, 85, 84, 83, 81, 80, 78, 70}, {98, 95, 93, 82, 80, 76, 71}, {100, 97, 95, 90, 89, 84, 80, 78, 74}, {99, 98, 97, 96, 91, 90, 81, 78, 73}, {99, 97, 93, 91, 90, 81, 68}, {85, 84, 82, 81, 80, 79}, {98, 96, 95, 91, 90, 89, 81, 80}, {97, 95, 91, 81, 80, 78}, {98, 95, 92, 90, 89, 81, 80}, {97, 91, 89, 83, 82, 80}, {98, 93, 90, 89, 83, 82}, {96, 95, 92, 89, 88, 80}, {97, 96, 91, 90, 89, 82}, {98, 93, 92, 87, 79}, {97, 91, 90, 89, 81}, {94, 87, 78}, {95, 89, 88, 87}, {93, 92, 91, 87}, {92, 90, 89, 88}, {96, 94, 87}, {91, 88, 87}, {92, 88}, {90, 88}, {87}, {87}, {87}, {88}, {93}, {89}, {87}, {}, {}, {}, {}, {}, {}, {}, {}, {}, {}, {}, {}, {}, {}];
n_opt = 600;
dur = [1, 11, 12, 13, 18, 26, 9, 10, 21, 25, 27, 30, 2, 9, 10, 21, 22, 24, 7, 9, 13, 14, 22, 27, 1, 12, 15, 16, 17, 24, 1, 3, 4, 10, 15, 26, 6, 7, 13, 17, 25, 28, 6, 16, 18, 20, 26, 27, 7, 8, 9, 10, 12, 25, 2, 4, 9, 18, 20, 29, 8, 12, 21, 22, 27, 28, 10, 20, 21, 22, 26, 27, 6, 14, 20, 25, 28, 29, 6, 10, 13, 18, 20, 27, 3, 4, 10, 18, 20, 29, 4, 5, 7, 19, 24, 27, 6, 8, 13, 20, 23, 26, 9, 11, 12, 19, 21, 28, 10, 12, 13, 21, 23, 24, 4, 18, 19, 22, 23, 24, 5, 13, 18, 19, 24, 27, 9, 11, 20, 22, 29, 30, 3, 11, 13, 18, 25, 27, 2, 3, 12, 24, 26, 30, 2, 8, 14, 18, 20, 21, 2, 3, 6, 19, 21, 25, 5, 7, 8, 12, 19, 20, 2, 10, 11, 13, 16, 24, 4, 5, 6, 14, 24, 28, 2, 6, 21, 22, 23, 30, 5, 7, 27, 28, 29, 30, 1, 3, 4, 6, 9, 29, 2, 7, 11, 13, 16, 29, 3, 8, 23, 24, 25, 29, 4, 5, 8, 15, 16, 22, 8, 14, 16, 18, 19, 20, 5, 19, 20, 21, 25, 29, 1, 3, 8, 10, 23, 24, 2, 15, 16, 17, 27, 28, 6, 12, 15, 16, 27, 30, 2, 8, 17, 18, 28, 29, 4, 15, 20, 21, 26, 30, 4, 14, 15, 18, 24, 26, 4, 14, 19, 23, 24, 29, 11, 17, 23, 24, 26, 29, 1, 3, 6, 12, 18, 19, 7, 12, 18, 19, 24, 26, 3, 10, 16, 19, 28, 30, 5, 9, 10, 25, 26, 27, 8, 9, 18, 19, 23, 27, 3, 6, 10, 13, 14, 25, 3, 4, 5, 19, 22, 28, 10, 12, 20, 21, 23, 24, 10, 22, 23, 25, 26, 27, 1, 3, 4, 14, 18, 19, 2, 9, 14, 15, 24, 25, 1, 9, 10, 15, 21, 24, 2, 3, 10, 15, 26, 29, 3, 6, 8, 17, 23, 29, 3, 11, 13, 17, 20, 28, 5, 6, 13, 20, 22, 27, 8, 14, 18, 19, 27, 28, 1, 2, 3, 10, 22, 28, 11, 20, 21, 22, 25, 28, 6, 7, 8, 9, 10, 20, 4, 8, 9, 10, 11, 13, 7, 12, 13, 14, 17, 22, 3, 5, 10, 11, 14, 24, 3, 10, 12, 15, 23, 24, 1, 3, 7, 11, 16, 25, 2, 13, 25, 26, 27, 30, 16, 17, 18, 19, 26, 27, 4, 9, 17, 19, 25, 28, 5, 9, 12, 13, 18, 23, 2, 3, 4, 10, 17, 27, 18, 20, 23, 28, 29, 30, 3, 5, 7, 14, 23, 24, 3, 12, 15, 20, 25, 29, 1, 15, 20, 22, 23, 30, 1, 4, 5, 17, 25, 30, 2, 23, 24, 25, 27, 30, 6, 8, 11, 23, 24, 29, 14, 15, 16, 18, 19, 22, 5, 20, 25, 27, 29, 30, 2, 10, 11, 16, 26, 30, 4, 9, 18, 21, 22, 30, 1, 8, 16, 19, 20, 27, 1, 9, 11, 13, 14, 27, 9, 15, 19, 21, 26, 28, 1, 7, 10, 17, 23, 25, 6, 7, 10, 17, 18, 28, 9, 12, 21, 22, 29, 30, 6, 7, 10, 12, 27, 28, 1, 9, 10, 13, 16, 27, 1, 9, 14, 24, 27, 30, 8, 16, 18, 20, 22, 23, 1, 6, 7, 8, 20, 30, 2, 6, 7, 14, 24, 29, 4, 6, 20, 25, 26, 29, 1, 4, 8, 11, 18, 19];
rreq = [|4, 4, 4, 4, 3, 3, 4, 3, 3, 2, 1, 1, 2, 2, 2, 2, 2, 2, 4, 4, 4, 4, 4, 4, 3, 3, 3, 3, 2, 2, 5, 3, 3, 2, 2, 1, 2, 2, 2, 1, 1, 1, 2, 2, 2, 2, 2, 2, 4, 3, 3, 3, 3, 3, 3, 3, 3, 3, 3, 3, 2, 1, 1, 1, 1, 1, 5, 3, 3, 3, 2, 1, 4, 4, 4, 4, 4, 4, 5, 4, 4, 4, 4, 4, 2, 2, 2, 2, 2, 2, 4, 4, 3, 3, 2, 1, 3, 3, 3, 3, 3, 3, 3, 2, 2, 2, 2, 2, 4, 3, 3, 3, 3, 3, 2, 1, 1, 1, 1, 1, 4, 4, 4, 4, 4, 4, 1, 1, 1, 1, 1, 1, 1, 1, 1, 1, 1, 1, 4, 4, 4, 4, 4, 4, 4, 4, 4, 4, 3, 3, 3, 3, 3, 3, 3, 3, 4, 3, 2, 2, 1, 1, 2, 2, 2, 1, 1, 1, 4, 4, 3, 3, 2, 2, 3, 3, 3, 3, 3, 3, 3, 3, 2, 2, 1, 1, 2, 2, 2, 2, 2, 2, 4, 3, 3, 3, 2, 2, 1, 1, 1, 1, 1, 1, 5, 5, 5, 5, 5, 5, 3, 2, 2, 1, 1, 1, 3, 2, 2, 1, 1, 1, 4, 3, 3, 3, 3, 3, 3, 2, 2, 2, 2, 2, 4, 4, 4, 3, 2, 2, 3, 2, 2, 2, 1, 1, 4, 3, 3, 3, 3, 3, 3, 2, 2, 2, 2, 2, 4, 3, 2, 2, 1, 1, 4, 4, 4, 4, 4, 4, 4, 3, 3, 3, 2, 1, 4, 4, 3, 3, 1, 1, 3, 3, 3, 3, 3, 3, 4, 3, 3, 3, 3, 3, 4, 3, 3, 3, 3, 3, 4, 4, 4, 4, 4, 4, 2, 2, 2, 2, 2, 2, 2, 2, 2, 2, 2, 2, 3, 3, 3, 3, 3, 3, 4, 4, 4, 4, 4, 4, 2, 2, 2, 2, 2, 2, 3, 3, 3, 3, 2, 2, 2, 2, 2, 2, 2, 2, 5, 5, 5, 5, 5, 5, 3, 3, 3, 3, 3, 3, 1, 1, 1, 1, 1, 1, 2, 2, 2, 1, 1, 1, 4, 4, 3, 3, 1, 1, 4, 3, 3, 3, 3, 3, 4, 4, 4, 4, 4, 4, 4, 4, 4, 4, 3, 3, 4, 3, 3, 3, 3, 3, 4, 4, 3, 3, 1, 1, 2, 1, 1, 1, 1, 1, 3, 2, 2, 1, 1, 1, 4, 4, 4, 4, 4, 4, 4, 3, 3, 3, 3, 3, 3, 2, 2, 2, 1, 1, 1, 1, 1, 1, 1, 1, 3, 3, 3, 2, 1, 1, 5, 4, 4, 3, 3, 3, 5, 4, 4, 3, 3, 2, 5, 5, 5, 5, 5, 5, 3, 2, 2, 2, 1, 1, 1, 1, 1, 1, 1, 1, 4, 4, 4, 4, 4, 4, 3, 3, 3, 2, 2, 2, 3, 3, 3, 3, 3, 3, 5, 4, 3, 3, 2, 2, 1, 1, 1, 1, 1, 1, 3, 2, 2, 2, 2, 2, 4, 4, 3, 2, 2, 1, 4, 4, 3, 3, 1, 1, 5, 5, 5, 5, 5, 5, 3, 3, 3, 2, 2, 2, 4, 3, 3, 2, 1, 1, 3, 3, 3, 3, 3, 3, 5, 4, 3, 3, 2, 1, 2, 2, 2, 2, 2, 2, 3, 3, 3, 2, 2, 1, 4, 4, 4, 4, 3, 3, 4, 3, 3, 2, 2, 2, 4, 4, 4, 4, 3, 3, 1, 1, 1, 1, 1, 1, 4, 3, 3, 2, 2, 2
 |4, 4, 4, 4, 4, 4, 5, 4, 3, 2, 1, 1, 3, 2, 2, 1, 1, 1, 4, 3, 3, 3, 2, 2, 3, 3, 3, 3, 3, 3, 4, 4, 3, 3, 2, 2, 5, 4, 4, 4, 4, 4, 4, 4, 4, 4, 4, 4, 3, 3, 3, 2, 1, 1, 3, 3, 3, 3, 3, 3, 4, 3, 3, 2, 2, 1, 5, 4, 4, 3, 3, 3, 4, 3, 3, 3, 3, 3, 5, 5, 5, 5, 5, 5, 4, 4, 3, 3, 1, 1, 3, 3, 3, 3, 3, 3, 1, 1, 1, 1, 1, 1, 5, 4, 4, 3, 3, 2, 1, 1, 1, 1, 1, 1, 3, 2, 2, 2, 1, 1, 3, 3, 3, 2, 1, 1, 5, 4, 4, 3, 3, 3, 2, 2, 2, 2, 2, 2, 4, 4, 4, 3, 3, 3, 5, 4, 3, 3, 2, 2, 1, 1, 1, 1, 1, 1, 5, 4, 4, 4, 3, 3, 2, 2, 2, 2, 2, 2, 1, 1, 1, 1, 1, 1, 5, 4, 4, 4, 4, 4, 3, 3, 3, 2, 1, 1, 3, 3, 3, 3, 3, 3, 4, 4, 4, 4, 4, 4, 5, 4, 4, 4, 3, 3, 2, 2, 2, 2, 2, 2, 1, 1, 1, 1, 1, 1, 5, 4, 3, 3, 2, 2, 2, 2, 2, 2, 2, 2, 1, 1, 1, 1, 1, 1, 3, 3, 3, 2, 2, 2, 4, 4, 4, 3, 3, 3, 4, 4, 4, 4, 4, 4, 5, 4, 4, 3, 3, 3, 3, 3, 2, 2, 1, 1, 4, 4, 3, 3, 2, 2, 4, 3, 3, 3, 2, 1, 2, 2, 2, 2, 2, 2, 4, 4, 4, 3, 2, 2, 5, 4, 4, 4, 4, 4, 4, 3, 3, 3, 3, 3, 5, 4, 4, 3, 3, 3, 4, 4, 4, 4, 4, 4, 2, 2, 2, 2, 2, 2, 2, 2, 2, 2, 2, 2, 3, 3, 3, 3, 3, 3, 4, 4, 4, 4, 3, 3, 5, 5, 5, 5, 5, 5, 4, 4, 4, 4, 4, 4, 4, 3, 3, 3, 2, 2, 3, 3, 3, 2, 1, 1, 4, 3, 3, 3, 3, 3, 5, 4, 3, 3, 2, 2, 3, 3, 3, 2, 2, 1, 2, 2, 2, 2, 2, 2, 5, 5, 5, 5, 5, 5, 2, 2, 2, 2, 2, 2, 4, 4, 4, 3, 3, 3, 3, 3, 3, 2, 2, 2, 4, 3, 3, 3, 2, 2, 3, 3, 3, 3, 3, 3, 5, 5, 5, 5, 5, 5, 3, 3, 3, 2, 2, 2, 4, 3, 3, 2, 2, 1, 4, 3, 3, 2, 2, 1, 3, 2, 2, 1, 1, 1, 3, 3, 3, 3, 2, 2, 3, 2, 2, 1, 1, 1, 3, 3, 3, 3, 3, 3, 2, 1, 1, 1, 1, 1, 4, 3, 3, 2, 2, 2, 4, 3, 3, 3, 3, 3, 3, 2, 2, 2, 2, 2, 4, 4, 4, 4, 4, 4, 1, 1, 1, 1, 1, 1, 2, 2, 2, 2, 2, 2, 4, 3, 3, 3, 2, 1, 5, 4, 3, 2, 1, 1, 2, 2, 2, 2, 1, 1, 3, 3, 3, 3, 2, 2, 5, 4, 4, 4, 3, 3, 2, 1, 1, 1, 1, 1, 2, 2, 2, 2, 2, 2, 4, 3, 3, 3, 2, 1, 2, 1, 1, 1, 1, 1, 4, 4, 3, 2, 1, 1, 5, 4, 4, 4, 4, 4, 1, 1, 1, 1, 1, 1, 4, 4, 4, 4, 4, 4, 5, 4, 4, 4, 4, 4, 3, 2, 2, 2, 2, 2
 |3, 2, 2, 2, 1, 1, 4, 3, 3, 2, 2, 1, 5, 4, 4, 4, 4, 4, 4, 4, 3, 3, 3, 2, 4, 3, 3, 2, 2, 2, 4, 4, 4, 4, 3, 3, 4, 4, 4, 3, 3, 3, 4, 3, 3, 3, 2, 2, 4, 4, 4, 3, 3, 3, 3, 2, 2, 1, 1, 1, 4, 3, 3, 3, 2, 2, 4, 4, 3, 3, 3, 2, 2, 2, 2, 2, 2, 2, 5, 4, 4, 3, 3, 3, 4, 3, 3, 3, 3, 3, 2, 1, 1, 1, 1, 1, 1, 1, 1, 1, 1, 1, 4, 3, 2, 2, 2, 1, 1, 1, 1, 1, 1, 1, 4, 4, 4, 4, 3, 3, 5, 3, 3, 3, 1, 1, 4, 4, 3, 3, 2, 1, 5, 4, 4, 3, 3, 3, 5, 4, 3, 3, 1, 1, 5, 4, 4, 3, 3, 3, 4, 4, 4, 3, 3, 3, 1, 1, 1, 1, 1, 1, 4, 3, 3, 3, 1, 1, 3, 2, 2, 2, 2, 2, 4, 4, 3, 2, 2, 1, 4, 3, 3, 3, 2, 1, 4, 4, 4, 4, 3, 3, 5, 4, 4, 4, 4, 4, 4, 3, 3, 3, 3, 3, 4, 3, 3, 2, 2, 1, 3, 3, 3, 3, 3, 3, 4, 4, 4, 3, 3, 2, 5, 4, 4, 4, 3, 3, 1, 1, 1, 1, 1, 1, 4, 3, 3, 3, 3, 3, 4, 3, 3, 3, 3, 3, 5, 4, 4, 3, 3, 2, 3, 3, 3, 3, 3, 3, 3, 2, 2, 1, 1, 1, 4, 4, 4, 3, 3, 3, 2, 1, 1, 1, 1, 1, 2, 2, 2, 1, 1, 1, 5, 4, 4, 3, 3, 3, 2, 2, 2, 2, 2, 2, 5, 5, 5, 5, 5, 5, 4, 4, 4, 4, 3, 3, 5, 4, 4, 4, 4, 4, 2, 2, 2, 2, 2, 2, 5, 4, 4, 4, 3, 3, 1, 1, 1, 1, 1, 1, 4, 4, 4, 4, 3, 3, 4, 4, 4, 3, 3, 3, 2, 2, 2, 2, 2, 2, 5, 4, 3, 3, 2, 2, 4, 4, 4, 4, 4, 4, 2, 2, 2, 2, 2, 2, 1, 1, 1, 1, 1, 1, 5, 4, 4, 3, 3, 3, 4, 3, 3, 2, 2, 1, 5, 4, 4, 3, 3, 3, 3, 2, 2, 2, 1, 1, 4, 4, 4, 3, 3, 3, 1, 1, 1, 1, 1, 1, 3, 3, 3, 3, 3, 3, 4, 4, 3, 3, 2, 1, 4, 4, 4, 4, 4, 4, 4, 3, 2, 2, 1, 1, 4, 4, 4, 4, 4, 4, 4, 4, 4, 4, 4, 4, 3, 3, 3, 3, 3, 3, 1, 1, 1, 1, 1, 1, 3, 2, 2, 2, 1, 1, 3, 3, 3, 2, 2, 2, 3, 2, 2, 2, 2, 2, 3, 3, 3, 3, 3, 3, 4, 4, 4, 4, 3, 3, 2, 2, 2, 2, 2, 2, 3, 2, 2, 2, 2, 2, 4, 3, 3, 2, 2, 1, 4, 4, 4, 3, 3, 2, 5, 5, 5, 5, 5, 5, 1, 1, 1, 1, 1, 1, 4, 4, 3, 3, 2, 2, 4, 3, 3, 3, 3, 3, 4, 4, 3, 3, 2, 2, 3, 2, 2, 1, 1, 1, 1, 1, 1, 1, 1, 1, 4, 4, 4, 4, 3, 3, 4, 4, 4, 4, 4, 4, 3, 2, 2, 2, 1, 1, 3, 2, 2, 1, 1, 1, 3, 3, 3, 3, 3, 3, 4, 4, 4, 4, 4, 4, 4, 4, 4, 4, 4, 4, 4, 4, 4, 4, 4, 4
 |5, 5, 5, 5, 5, 5, 3, 2, 2, 1, 1, 1, 3, 3, 3, 2, 1, 1, 2, 2, 2, 2, 2, 2, 4, 3, 3, 3, 3, 3, 2, 2, 2, 2, 2, 2, 1, 1, 1, 1, 1, 1, 3, 3, 3, 3, 3, 3, 1, 1, 1, 1, 1, 1, 3, 3, 3, 3, 3, 3, 5, 5, 5, 5, 5, 5, 4, 3, 3, 2, 2, 1, 4, 4, 4, 4, 4, 4, 3, 2, 2, 2, 2, 2, 4, 4, 4, 4, 4, 4, 2, 1, 1, 1, 1, 1, 3, 3, 3, 2, 1, 1, 5, 4, 4, 3, 3, 2, 4, 4, 4, 3, 3, 3, 4, 4, 4, 3, 2, 2, 3, 3, 3, 3, 2, 2, 5, 5, 5, 5, 5, 5, 2, 2, 2, 2, 2, 2, 2, 1, 1, 1, 1, 1, 2, 1, 1, 1, 1, 1, 2, 2, 2, 2, 1, 1, 4, 4, 4, 4, 4, 4, 3, 3, 3, 3, 3, 3, 4, 4, 4, 4, 4, 4, 4, 3, 3, 2, 2, 2, 2, 2, 2, 2, 2, 2, 2, 2, 2, 2, 1, 1, 5, 5, 5, 5, 5, 5, 4, 3, 3, 2, 2, 1, 3, 3, 3, 3, 2, 2, 4, 4, 3, 2, 2, 1, 1, 1, 1, 1, 1, 1, 4, 4, 4, 3, 3, 3, 2, 2, 2, 2, 2, 2, 4, 4, 4, 4, 4, 4, 4, 4, 4, 4, 4, 4, 3, 3, 3, 2, 2, 2, 2, 2, 2, 1, 1, 1, 5, 4, 4, 3, 3, 2, 4, 4, 4, 4, 4, 4, 4, 4, 4, 4, 4, 4, 5, 4, 4, 4, 4, 4, 4, 3, 3, 3, 3, 3, 5, 3, 3, 3, 1, 1, 4, 3, 3, 3, 2, 2, 5, 5, 5, 5, 5, 5, 2, 1, 1, 1, 1, 1, 4, 3, 3, 2, 2, 2, 5, 4, 4, 4, 4, 4, 2, 2, 2, 1, 1, 1, 4, 4, 4, 4, 3, 3, 4, 3, 3, 2, 2, 1, 4, 4, 3, 3, 3, 2, 4, 3, 3, 2, 2, 2, 3, 3, 3, 2, 2, 2, 4, 4, 4, 3, 3, 3, 3, 2, 2, 1, 1, 1, 5, 4, 4, 4, 4, 4, 4, 4, 3, 3, 3, 2, 4, 4, 4, 4, 4, 4, 3, 3, 3, 3, 3, 3, 3, 2, 2, 2, 2, 2, 5, 4, 3, 3, 2, 2, 5, 4, 4, 4, 3, 3, 5, 4, 3, 3, 3, 2, 3, 3, 3, 2, 1, 1, 5, 4, 4, 3, 2, 2, 4, 4, 3, 3, 2, 2, 3, 3, 3, 3, 2, 2, 3, 2, 2, 2, 2, 2, 2, 2, 2, 2, 1, 1, 4, 4, 4, 4, 3, 3, 1, 1, 1, 1, 1, 1, 2, 1, 1, 1, 1, 1, 2, 1, 1, 1, 1, 1, 5, 3, 3, 3, 2, 1, 4, 4, 3, 3, 3, 2, 1, 1, 1, 1, 1, 1, 5, 4, 4, 3, 2, 2, 4, 3, 3, 2, 1, 1, 5, 4, 4, 3, 3, 2, 2, 2, 2, 2, 2, 2, 5, 4, 4, 3, 3, 3, 1, 1, 1, 1, 1, 1, 3, 2, 2, 2, 1, 1, 2, 2, 2, 2, 1, 1, 3, 2, 2, 1, 1, 1, 2, 2, 2, 1, 1, 1, 3, 3, 3, 3, 3, 3, 4, 3, 3, 3, 2, 2, 1, 1, 1, 1, 1, 1, 3, 3, 3, 2, 2, 2, 1, 1, 1, 1, 1, 1, 5, 4, 4, 4, 4, 4, 4, 4, 4, 4, 4, 4
 |11, 11, 9, 7, 5, 4, 13, 12, 12, 11, 10, 10, 21, 19, 18, 17, 16, 13, 7, 6, 5, 5, 5, 4, 18, 16, 14, 13, 13, 12, 21, 19, 16, 16, 13, 12, 29, 25, 23, 21, 18, 18, 21, 20, 14, 10, 5, 4, 26, 20, 17, 11, 9, 2, 25, 23, 18, 15, 13, 10, 22, 20, 20, 20, 19, 18, 16, 13, 12, 7, 4, 4, 27, 26, 24, 21, 17, 14, 19, 18, 15, 10, 8, 6, 7, 5, 5, 4, 2, 1, 26, 26, 26, 26, 26, 26, 6, 5, 5, 5, 5, 5, 21, 18, 17, 9, 8, 1, 23, 23, 22, 20, 18, 17, 29, 28, 28, 28, 27, 27, 20, 15, 14, 10, 8, 6, 4, 4, 4, 4, 4, 4, 18, 15, 15, 13, 11, 9, 20, 15, 14, 12, 7, 5, 22, 19, 16, 14, 14, 12, 9, 7, 5, 5, 3, 2, 19, 18, 15, 12, 9, 4, 18, 16, 14, 13, 9, 7, 9, 8, 7, 5, 4, 4, 18, 16, 15, 11, 11, 9, 29, 24, 22, 21, 16, 15, 23, 19, 15, 13, 7, 4, 6, 5, 5, 3, 2, 1, 25, 24, 23, 22, 22, 21, 26, 22, 22, 21, 18, 16, 18, 14, 12, 11, 7, 6, 12, 11, 10, 9, 8, 8, 20, 17, 17, 11, 9, 6, 22, 21, 17, 12, 8, 5, 25, 25, 21, 18, 18, 15, 10, 9, 7, 5, 3, 2, 11, 8, 6, 6, 4, 2, 13, 12, 11, 9, 8, 8, 5, 4, 4, 4, 3, 3, 19, 17, 17, 15, 11, 11, 13, 11, 11, 7, 7, 4, 28, 25, 19, 16, 15, 13, 19, 15, 13, 11, 8, 8, 2, 1, 1, 1, 1, 1, 20, 17, 16, 13, 13, 10, 24, 22, 19, 19, 18, 15, 12, 10, 8, 4, 4, 2, 15, 13, 11, 10, 10, 9, 26, 26, 26, 26, 26, 26, 14, 11, 9, 8, 6, 4, 24, 22, 20, 19, 17, 12, 22, 21, 19, 17, 15, 14, 13, 12, 12, 12, 11, 11, 27, 23, 19, 19, 16, 13, 27, 24, 19, 16, 15, 11, 19, 18, 17, 14, 14, 12, 10, 10, 9, 9, 9, 8, 23, 23, 21, 21, 19, 19, 23, 21, 21, 18, 16, 16, 14, 12, 10, 9, 8, 6, 19, 15, 14, 8, 7, 3, 4, 4, 3, 3, 2, 1, 18, 17, 12, 9, 5, 3, 26, 25, 25, 25, 25, 25, 23, 19, 16, 14, 12, 8, 30, 29, 27, 27, 26, 24, 21, 16, 13, 11, 7, 3, 10, 10, 10, 10, 9, 9, 7, 7, 7, 7, 6, 6, 29, 28, 27, 27, 26, 25, 14, 14, 12, 9, 5, 3, 16, 16, 11, 10, 6, 2, 20, 16, 13, 10, 6, 3, 10, 7, 6, 5, 4, 3, 17, 16, 13, 10, 8, 6, 23, 20, 19, 18, 14, 13, 20, 19, 18, 18, 16, 16, 6, 6, 6, 6, 6, 6, 17, 16, 15, 15, 14, 14, 22, 20, 17, 14, 12, 10, 12, 11, 10, 8, 7, 6, 19, 18, 17, 17, 17, 16, 29, 25, 16, 16, 7, 4, 23, 18, 14, 11, 8, 7, 26, 24, 22, 20, 17, 16, 19, 18, 16, 14, 13, 13, 25, 24, 23, 23, 22, 22, 29, 27, 24, 23, 21, 20, 19, 19, 18, 18, 17, 17, 21, 17, 13, 10, 9, 4, 14, 10, 8, 7, 3, 2, 27, 27, 25, 25, 23, 23, 25, 25, 24, 24, 23, 23, 25, 24, 24, 23, 23, 23, 25, 19, 19, 17, 12, 9
 |22, 19, 18, 14, 14, 11, 28, 22, 18, 14, 10, 8, 21, 20, 19, 18, 16, 16, 24, 23, 20, 17, 13, 11, 18, 14, 14, 11, 11, 9, 29, 29, 28, 28, 27, 27, 23, 22, 22, 21, 20, 19, 27, 26, 24, 24, 22, 21, 28, 26, 24, 23, 21, 21, 23, 22, 16, 14, 11, 6, 18, 16, 13, 12, 9, 9, 27, 24, 24, 21, 18, 17, 9, 8, 8, 8, 8, 8, 16, 16, 16, 16, 15, 15, 10, 9, 9, 8, 6, 6, 20, 18, 17, 16, 16, 15, 8, 8, 7, 8, 8, 7, 17, 16, 16, 14, 13, 12, 9, 6, 6, 4, 3, 2, 11, 9, 8, 7, 7, 5, 23, 20, 16, 13, 12, 10, 25, 25, 21, 20, 17, 16, 27, 23, 16, 15, 9, 3, 3, 3, 3, 2, 1, 1, 23, 20, 15, 10, 6, 2, 29, 29, 28, 26, 26, 25, 29, 25, 23, 22, 19, 19, 8, 6, 5, 4, 2, 1, 19, 19, 19, 19, 19, 18, 23, 18, 18, 16, 12, 11, 28, 24, 21, 18, 16, 13, 16, 14, 12, 7, 6, 2, 17, 13, 12, 9, 7, 7, 18, 18, 18, 17, 17, 17, 18, 17, 15, 13, 12, 11, 27, 26, 24, 24, 23, 22, 18, 17, 15, 13, 10, 8, 11, 10, 9, 9, 9, 8, 18, 16, 14, 13, 13, 11, 18, 18, 16, 15, 12, 10, 28, 21, 19, 13, 8, 2, 21, 19, 17, 16, 16, 14, 11, 10, 9, 8, 5, 4, 27, 23, 19, 15, 8, 6, 19, 17, 15, 13, 11, 8, 25, 24, 23, 24, 23, 23, 8, 7, 7, 7, 6, 6, 7, 6, 5, 5, 5, 4, 12, 9, 8, 7, 7, 6, 10, 8, 7, 6, 3, 2, 17, 17, 17, 16, 16, 16, 4, 3, 3, 3, 2, 3, 16, 13, 11, 9, 7, 5, 19, 18, 16, 15, 13, 12, 20, 19, 19, 19, 19, 19, 30, 29, 28, 26, 26, 25, 13, 13, 9, 6, 5, 2, 9, 8, 5, 4, 3, 1, 19, 17, 16, 14, 9, 7, 6, 5, 5, 4, 4, 3, 12, 12, 12, 12, 11, 12, 21, 19, 16, 10, 6, 5, 28, 26, 24, 23, 21, 20, 12, 12, 11, 11, 10, 10, 24, 22, 21, 21, 19, 17, 19, 18, 15, 11, 11, 7, 21, 18, 14, 10, 5, 4, 26, 23, 19, 15, 12, 12, 28, 22, 19, 12, 7, 5, 15, 13, 13, 13, 12, 11, 14, 14, 13, 13, 12, 12, 19, 17, 17, 15, 15, 14, 14, 14, 13, 11, 11, 9, 17, 15, 10, 10, 4, 3, 28, 28, 27, 26, 24, 24, 27, 21, 21, 16, 12, 9, 30, 25, 25, 21, 20, 19, 21, 21, 16, 16, 13, 9, 22, 18, 17, 13, 10, 7, 23, 21, 20, 18, 16, 15, 27, 25, 25, 22, 21, 19, 25, 23, 22, 19, 17, 16, 24, 23, 22, 21, 19, 18, 18, 13, 11, 8, 7, 3, 26, 24, 19, 17, 13, 13, 9, 8, 6, 5, 5, 3, 13, 11, 10, 7, 7, 4, 14, 11, 10, 8, 4, 1, 20, 18, 16, 13, 13, 10, 14, 14, 10, 10, 6, 5, 18, 16, 16, 11, 11, 7, 15, 13, 12, 12, 11, 9, 14, 14, 12, 11, 10, 10, 6, 6, 5, 4, 5, 4, 28, 27, 24, 20, 17, 12, 25, 20, 17, 14, 10, 4, 26, 24, 24, 23, 23, 22, 26, 25, 25, 24, 25, 24, 12, 12, 11, 11, 10, 9, 29, 26, 24, 21, 17, 16|];